#pLT is two-dimensional [i,r]=[component, individual]
#[i,*] means all data in row i.

param pLT := 
[1,*]
1  0    2  8    3  8    4  6    5  7    6  5    

[2,*]
1  4    2  6    3  5    4  5    5  3    6  3    
;